-210.0 4.0 2.0 4.0 5.0 9.0 3.0 3.0 6.0 9.0 1.0 2.0 3.0 2.0 2.0 7.0 8.0 1.0 6.0 10.0 8.0 4.0 6.0 6.0 3.0 3.0 1.0 7.0 0.0 5.0 10.0 8.0 7.0 10.0 4.0 10.0 8.0 6.0 10.0 3.0 4.0 0.0 
4.0 -217.0 6.0 6.0 10.0 8.0 2.0 7.0 8.0 9.0 8.0 2.0 3.0 6.0 4.0 5.0 9.0 8.0 3.0 7.0 9.0 9.0 9.0 8.0 4.0 1.0 10.0 3.0 8.0 3.0 6.0 5.0 2.0 5.0 1.0 1.0 2.0 6.0 10.0 0.0 0.0 0.0 
2.0 6.0 -178.0 8.0 0.0 4.0 2.0 4.0 5.0 4.0 2.0 3.0 8.0 7.0 1.0 7.0 7.0 2.0 2.0 3.0 4.0 8.0 0.0 0.0 10.0 10.0 3.0 0.0 3.0 5.0 6.0 3.0 5.0 8.0 2.0 1.0 10.0 0.0 8.0 2.0 10.0 3.0 
4.0 6.0 8.0 -218.0 5.0 10.0 1.0 1.0 5.0 7.0 0.0 8.0 7.0 10.0 5.0 2.0 2.0 4.0 10.0 6.0 5.0 7.0 10.0 2.0 4.0 9.0 7.0 10.0 5.0 6.0 5.0 6.0 4.0 8.0 0.0 1.0 0.0 6.0 3.0 9.0 3.0 7.0 
5.0 10.0 0.0 5.0 -252.0 5.0 4.0 10.0 6.0 9.0 10.0 4.0 10.0 9.0 7.0 9.0 7.0 10.0 8.0 2.0 7.0 1.0 4.0 8.0 2.0 6.0 2.0 5.0 9.0 4.0 6.0 10.0 9.0 4.0 4.0 9.0 4.0 7.0 9.0 5.0 7.0 0.0 
9.0 8.0 4.0 10.0 5.0 -189.0 6.0 6.0 1.0 6.0 10.0 2.0 0.0 8.0 2.0 0.0 7.0 6.0 5.0 1.0 4.0 8.0 3.0 4.0 1.0 0.0 1.0 5.0 3.0 4.0 7.0 6.0 8.0 8.0 0.0 10.0 3.0 6.0 2.0 5.0 5.0 0.0 
3.0 2.0 2.0 1.0 4.0 6.0 -167.0 7.0 10.0 1.0 7.0 9.0 6.0 5.0 2.0 0.0 2.0 4.0 1.0 3.0 5.0 3.0 2.0 1.0 10.0 2.0 2.0 9.0 8.0 1.0 9.0 9.0 1.0 5.0 4.0 2.0 1.0 2.0 1.0 5.0 2.0 8.0 
3.0 7.0 4.0 1.0 10.0 6.0 7.0 -199.0 7.0 0.0 3.0 0.0 6.0 0.0 9.0 2.0 10.0 1.0 1.0 10.0 6.0 2.0 9.0 6.0 9.0 2.0 4.0 10.0 5.0 5.0 1.0 1.0 10.0 0.0 4.0 4.0 8.0 8.0 3.0 8.0 6.0 1.0 
6.0 8.0 5.0 5.0 6.0 1.0 10.0 7.0 -249.0 6.0 7.0 9.0 6.0 5.0 7.0 8.0 8.0 8.0 0.0 1.0 8.0 10.0 0.0 2.0 1.0 10.0 1.0 5.0 9.0 6.0 10.0 9.0 4.0 5.0 1.0 10.0 10.0 5.0 7.0 9.0 6.0 8.0 
9.0 9.0 4.0 7.0 9.0 6.0 1.0 0.0 6.0 -215.0 7.0 6.0 5.0 10.0 7.0 10.0 0.0 6.0 1.0 9.0 5.0 2.0 6.0 6.0 0.0 3.0 6.0 3.0 6.0 2.0 9.0 7.0 6.0 4.0 0.0 1.0 8.0 9.0 5.0 0.0 10.0 5.0 
1.0 8.0 2.0 0.0 10.0 10.0 7.0 3.0 7.0 7.0 -206.0 9.0 9.0 10.0 2.0 2.0 10.0 0.0 5.0 3.0 1.0 3.0 8.0 0.0 0.0 5.0 3.0 3.0 5.0 9.0 5.0 4.0 4.0 9.0 2.0 5.0 9.0 0.0 9.0 1.0 7.0 9.0 
2.0 2.0 3.0 8.0 4.0 2.0 9.0 0.0 9.0 6.0 9.0 -209.0 2.0 1.0 7.0 8.0 9.0 0.0 9.0 4.0 0.0 9.0 1.0 5.0 0.0 10.0 9.0 10.0 0.0 2.0 3.0 7.0 3.0 5.0 7.0 3.0 2.0 8.0 10.0 3.0 10.0 8.0 
3.0 3.0 8.0 7.0 10.0 0.0 6.0 6.0 6.0 5.0 9.0 2.0 -207.0 2.0 1.0 3.0 10.0 0.0 2.0 4.0 3.0 10.0 0.0 8.0 7.0 8.0 7.0 2.0 1.0 8.0 1.0 0.0 3.0 10.0 7.0 10.0 3.0 10.0 8.0 5.0 8.0 1.0 
2.0 6.0 7.0 10.0 9.0 8.0 5.0 0.0 5.0 10.0 10.0 1.0 2.0 -216.0 3.0 5.0 5.0 3.0 9.0 9.0 9.0 9.0 2.0 6.0 5.0 7.0 0.0 6.0 5.0 1.0 9.0 10.0 3.0 1.0 5.0 7.0 7.0 2.0 8.0 2.0 2.0 1.0 
2.0 4.0 1.0 5.0 7.0 2.0 2.0 9.0 7.0 7.0 2.0 7.0 1.0 3.0 -204.0 9.0 0.0 6.0 8.0 8.0 7.0 1.0 4.0 2.0 8.0 0.0 9.0 9.0 8.0 3.0 7.0 1.0 8.0 0.0 5.0 9.0 10.0 10.0 4.0 8.0 1.0 0.0 
7.0 5.0 7.0 2.0 9.0 0.0 0.0 2.0 8.0 10.0 2.0 8.0 3.0 5.0 9.0 -214.0 6.0 10.0 5.0 8.0 4.0 5.0 3.0 10.0 8.0 8.0 9.0 3.0 2.0 2.0 2.0 8.0 2.0 3.0 2.0 7.0 1.0 3.0 9.0 10.0 3.0 4.0 
8.0 9.0 7.0 2.0 7.0 7.0 2.0 10.0 8.0 0.0 10.0 9.0 10.0 5.0 0.0 6.0 -238.0 8.0 6.0 9.0 0.0 3.0 5.0 8.0 6.0 1.0 7.0 9.0 8.0 6.0 6.0 6.0 8.0 4.0 1.0 2.0 8.0 5.0 4.0 6.0 7.0 5.0 
1.0 8.0 2.0 4.0 10.0 6.0 4.0 1.0 8.0 6.0 0.0 0.0 0.0 3.0 6.0 10.0 8.0 -196.0 6.0 5.0 10.0 0.0 3.0 2.0 8.0 10.0 1.0 3.0 2.0 7.0 1.0 8.0 2.0 9.0 6.0 6.0 9.0 9.0 3.0 2.0 7.0 0.0 
6.0 3.0 2.0 10.0 8.0 5.0 1.0 1.0 0.0 1.0 5.0 9.0 2.0 9.0 8.0 5.0 6.0 6.0 -206.0 4.0 6.0 9.0 6.0 2.0 9.0 2.0 9.0 8.0 7.0 2.0 7.0 2.0 8.0 3.0 6.0 7.0 4.0 0.0 0.0 7.0 4.0 7.0 
10.0 7.0 3.0 6.0 2.0 1.0 3.0 10.0 1.0 9.0 3.0 4.0 4.0 9.0 8.0 8.0 9.0 5.0 4.0 -219.0 8.0 7.0 8.0 3.0 7.0 7.0 1.0 2.0 10.0 5.0 1.0 3.0 8.0 6.0 9.0 9.0 2.0 3.0 1.0 5.0 0.0 8.0 
8.0 9.0 4.0 5.0 7.0 4.0 5.0 6.0 8.0 5.0 1.0 0.0 3.0 9.0 7.0 4.0 0.0 10.0 6.0 8.0 -213.0 0.0 8.0 10.0 10.0 6.0 3.0 10.0 0.0 10.0 0.0 2.0 1.0 7.0 8.0 2.0 2.0 8.0 2.0 9.0 3.0 3.0 
4.0 9.0 8.0 7.0 1.0 8.0 3.0 2.0 10.0 2.0 3.0 9.0 10.0 9.0 1.0 5.0 3.0 0.0 9.0 7.0 0.0 -190.0 6.0 2.0 5.0 3.0 6.0 2.0 2.0 1.0 3.0 3.0 1.0 10.0 4.0 2.0 5.0 5.0 4.0 5.0 7.0 4.0 
6.0 9.0 0.0 10.0 4.0 3.0 2.0 9.0 0.0 6.0 8.0 1.0 0.0 2.0 4.0 3.0 5.0 3.0 6.0 8.0 8.0 6.0 -211.0 1.0 1.0 7.0 6.0 10.0 8.0 2.0 8.0 3.0 2.0 4.0 8.0 0.0 8.0 6.0 9.0 10.0 5.0 10.0 
6.0 8.0 0.0 2.0 8.0 4.0 1.0 6.0 2.0 6.0 0.0 5.0 8.0 6.0 2.0 10.0 8.0 2.0 2.0 3.0 10.0 2.0 1.0 -200.0 3.0 1.0 7.0 5.0 2.0 6.0 6.0 7.0 4.0 9.0 6.0 10.0 1.0 9.0 6.0 7.0 7.0 2.0 
3.0 4.0 10.0 4.0 2.0 1.0 10.0 9.0 1.0 0.0 0.0 0.0 7.0 5.0 8.0 8.0 6.0 8.0 9.0 7.0 10.0 5.0 1.0 3.0 -198.0 1.0 2.0 8.0 7.0 5.0 9.0 4.0 1.0 6.0 2.0 1.0 5.0 0.0 8.0 0.0 10.0 8.0 
3.0 1.0 10.0 9.0 6.0 0.0 2.0 2.0 10.0 3.0 5.0 10.0 8.0 7.0 0.0 8.0 1.0 10.0 2.0 7.0 6.0 3.0 7.0 1.0 1.0 -216.0 3.0 5.0 3.0 9.0 4.0 9.0 6.0 4.0 10.0 1.0 5.0 0.0 9.0 8.0 8.0 10.0 
1.0 10.0 3.0 7.0 2.0 1.0 2.0 4.0 1.0 6.0 3.0 9.0 7.0 0.0 9.0 9.0 7.0 1.0 9.0 1.0 3.0 6.0 6.0 7.0 2.0 3.0 -210.0 2.0 5.0 3.0 7.0 9.0 6.0 8.0 4.0 3.0 7.0 10.0 10.0 1.0 9.0 7.0 
7.0 3.0 0.0 10.0 5.0 5.0 9.0 10.0 5.0 3.0 3.0 10.0 2.0 6.0 9.0 3.0 9.0 3.0 8.0 2.0 10.0 2.0 10.0 5.0 8.0 5.0 2.0 -221.0 8.0 3.0 6.0 0.0 8.0 9.0 10.0 4.0 1.0 3.0 4.0 2.0 7.0 2.0 
0.0 8.0 3.0 5.0 9.0 3.0 8.0 5.0 9.0 6.0 5.0 0.0 1.0 5.0 8.0 2.0 8.0 2.0 7.0 10.0 0.0 2.0 8.0 2.0 7.0 3.0 5.0 8.0 -186.0 4.0 3.0 1.0 1.0 1.0 9.0 4.0 2.0 1.0 1.0 10.0 10.0 0.0 
5.0 3.0 5.0 6.0 4.0 4.0 1.0 5.0 6.0 2.0 9.0 2.0 8.0 1.0 3.0 2.0 6.0 7.0 2.0 5.0 10.0 1.0 2.0 6.0 5.0 9.0 3.0 3.0 4.0 -194.0 6.0 4.0 9.0 4.0 3.0 3.0 1.0 5.0 7.0 5.0 8.0 10.0 
10.0 6.0 6.0 5.0 6.0 7.0 9.0 1.0 10.0 9.0 5.0 3.0 1.0 9.0 7.0 2.0 6.0 1.0 7.0 1.0 0.0 3.0 8.0 6.0 9.0 4.0 7.0 6.0 3.0 6.0 -193.0 3.0 5.0 1.0 0.0 0.0 7.0 2.0 2.0 0.0 5.0 5.0 
8.0 5.0 3.0 6.0 10.0 6.0 9.0 1.0 9.0 7.0 4.0 7.0 0.0 10.0 1.0 8.0 6.0 8.0 2.0 3.0 2.0 3.0 3.0 7.0 4.0 9.0 9.0 0.0 1.0 4.0 3.0 -217.0 4.0 3.0 4.0 10.0 1.0 10.0 3.0 9.0 8.0 7.0 
7.0 2.0 5.0 4.0 9.0 8.0 1.0 10.0 4.0 6.0 4.0 3.0 3.0 3.0 8.0 2.0 8.0 2.0 8.0 8.0 1.0 1.0 2.0 4.0 1.0 6.0 6.0 8.0 1.0 9.0 5.0 4.0 -191.0 5.0 1.0 7.0 1.0 4.0 1.0 4.0 5.0 10.0 
10.0 5.0 8.0 8.0 4.0 8.0 5.0 0.0 5.0 4.0 9.0 5.0 10.0 1.0 0.0 3.0 4.0 9.0 3.0 6.0 7.0 10.0 4.0 9.0 6.0 4.0 8.0 9.0 1.0 4.0 1.0 3.0 5.0 -206.0 2.0 3.0 1.0 3.0 0.0 2.0 10.0 7.0 
4.0 1.0 2.0 0.0 4.0 0.0 4.0 4.0 1.0 0.0 2.0 7.0 7.0 5.0 5.0 2.0 1.0 6.0 6.0 9.0 8.0 4.0 8.0 6.0 2.0 10.0 4.0 10.0 9.0 3.0 0.0 4.0 1.0 2.0 -155.0 4.0 4.0 3.0 0.0 2.0 0.0 1.0 
10.0 1.0 1.0 1.0 9.0 10.0 2.0 4.0 10.0 1.0 5.0 3.0 10.0 7.0 9.0 7.0 2.0 6.0 7.0 9.0 2.0 2.0 0.0 10.0 1.0 1.0 3.0 4.0 4.0 3.0 0.0 10.0 7.0 3.0 4.0 -189.0 0.0 8.0 10.0 1.0 2.0 0.0 
8.0 2.0 10.0 0.0 4.0 3.0 1.0 8.0 10.0 8.0 9.0 2.0 3.0 7.0 10.0 1.0 8.0 9.0 4.0 2.0 2.0 5.0 8.0 1.0 5.0 5.0 7.0 1.0 2.0 1.0 7.0 1.0 1.0 1.0 4.0 0.0 -171.0 0.0 0.0 1.0 7.0 3.0 
6.0 6.0 0.0 6.0 7.0 6.0 2.0 8.0 5.0 9.0 0.0 8.0 10.0 2.0 10.0 3.0 5.0 9.0 0.0 3.0 8.0 5.0 6.0 9.0 0.0 0.0 10.0 3.0 1.0 5.0 2.0 10.0 4.0 3.0 3.0 8.0 0.0 -196.0 0.0 9.0 0.0 5.0 
10.0 10.0 8.0 3.0 9.0 2.0 1.0 3.0 7.0 5.0 9.0 10.0 8.0 8.0 4.0 9.0 4.0 3.0 0.0 1.0 2.0 4.0 9.0 6.0 8.0 9.0 10.0 4.0 1.0 7.0 2.0 3.0 1.0 0.0 0.0 10.0 0.0 0.0 -209.0 8.0 10.0 1.0 
3.0 0.0 2.0 9.0 5.0 5.0 5.0 8.0 9.0 0.0 1.0 3.0 5.0 2.0 8.0 10.0 6.0 2.0 7.0 5.0 9.0 5.0 10.0 7.0 0.0 8.0 1.0 2.0 10.0 5.0 0.0 9.0 4.0 2.0 2.0 1.0 1.0 9.0 8.0 -201.0 7.0 6.0 
4.0 0.0 10.0 3.0 7.0 5.0 2.0 6.0 6.0 10.0 7.0 10.0 8.0 2.0 1.0 3.0 7.0 7.0 4.0 0.0 3.0 7.0 5.0 7.0 10.0 8.0 9.0 7.0 10.0 8.0 5.0 8.0 5.0 10.0 0.0 2.0 7.0 0.0 10.0 7.0 -232.0 2.0 
0.0 0.0 3.0 7.0 0.0 0.0 8.0 1.0 8.0 5.0 9.0 8.0 1.0 1.0 0.0 4.0 5.0 0.0 7.0 8.0 3.0 4.0 10.0 2.0 8.0 10.0 7.0 2.0 0.0 10.0 5.0 7.0 10.0 7.0 1.0 0.0 3.0 5.0 1.0 6.0 2.0 -178.0 

